n_tipus_finques = 13;

maxPts = 6;

definicio_finques = array2d(1..13, 1..6, [
  (1,2), (1,3), (2,1), (2,2), (3,2), (0,0),%1
  (1,1), (2,1), (3,1), (4,1), (5,1), (0,0),%2
  (1,1), (2,1), (3,1), (4,1), (4,2), (0,0),%3
  (1,1), (2,1), (3,1), (3,2), (4,2), (0,0),%4
  (1,1), (1,2), (2,1), (2,2), (3,1), (0,0),%5
  (1,1), (1,2), (1,3), (2,2), (3,2), (0,0),%6
  (1,1), (1,3), (2,1), (2,2), (2,3), (0,0),%7
  (1,1), (2,1), (3,1), (3,2), (3,3), (0,0),%8
  (1,1), (1,2), (2,2), (3,2), (3,3), (0,0),%9
  (1,2), (2,1), (2,2), (2,3), (3,2), (0,0),%10
  (1,2), (2,1), (2,2), (3,2), (4,2), (0,0),%11
  (1,1), (1,2), (2,2), (3,2), (3,3), (0,0),%12
  (1,1), (1,2), (1,3), (2,1), (2,2), (2,3) %13
]);

height = 13;
width = 8;

parcs = {5,13,21,34,35}; % Posicio en format lineal

camins = {52, 53, 54, 60}; % Posicio en format lineal

n_finques = 12;
finques = [1, 2, 3, 3, 3, 5, 6, 7, 9, 9, 10, 11];

n_incompatibles = 4;
incompatibles = [(1,7), (1,8), (1,9), (1,10)]; % indexos de l'array finques

finques_amb_parc = {5, 6};